SDVRPTW/PR03.vrp
NAME: PR03
COMMENT: Based on Cordeau and Laporte (2001).
TYPE: SDVRPTW
EDGE_WEIGHT_TYPE: EUC_2D
DIMENSION: 145
VEHICLES: 16
NODE_COORD_SECTION
1	-7.089	2.402
2	18.884	-16.04
3	-6.049	41.125
4	-48.553	-29.407
5	-20.337	52.478
6	19.244	35.107
7	-12.189	-45.801
8	-16.956	-39.697
9	-24.176	-51.526
10	30.023	-14.74
11	-19.269	34.711
12	-5.286	-20.105
13	-39.374	-10.303
14	15.625	-36.688
15	-35.919	80.383
16	18.054	33.295
17	-52.368	-18.463
18	19.763	45.642
19	-51.55	-30.908
20	18.091	44.049
21	-14.38	-62.408
22	1.77	-5.847
23	63.995	-11.792
24	16.241	13.153
25	-10.193	32.214
26	-2.185	33.929
27	9.674	-17.505
28	10.559	32.007
29	-75.11	4.51
30	-17.352	-5.609
31	41.479	-57.941
32	40.948	-8.057
33	27.118	-5.255
34	14.093	-5.896
35	-59.222	-12.811
36	-32.751	2.216
37	16.962	-66.901
38	-2.686	18.994
39	-48.499	-23.7
40	-6.616	-13.336
41	-86.798	-93.707
42	-38.22	-5.066
43	31.72	-36.578
44	32.361	-1.74
45	6.647	15.558
46	-12.555	39.6
47	23.071	-22.437
48	13.739	3.558
49	70.734	-43.695
50	-8.771	-15.558
51	-61.951	14.111
52	-9.778	-4.926
53	-2.765	17.938
54	14.478	-41.65
55	-51.91	26.892
56	38.116	-98.456
57	-31.421	11.328
58	12.476	56.097
59	2.399	-71.582
60	8.411	49.017
61	21.472	-8.655
62	-54.492	17.676
63	14.374	-0.012
64	-14.001	8.032
65	74.286	-16.187
66	21.094	-11.499
67	-54.37	20.74
68	-7.458	74.432
69	1.935	11.261
70	6.305	36.768
71	-31.317	-7.172
72	-30.548	14.087
73	18.665	87.811
74	-36.78	-23.633
75	35.87	-19.482
76	-41.852	17.31
77	56.519	58.289
78	-43.036	-41.541
79	27.344	70.087
80	36.841	44.153
81	-63.348	-14.856
82	-45.312	-19.739
83	-27.887	64.532
84	-38.354	-4.034
85	-35.638	6.61
86	2.142	27.856
87	6.61	-2.216
88	-31.451	72.369
89	2.655	-25.14
90	-53.595	28.552
91	-7.745	50.72
92	-48.7	-17.981
93	-40.582	-3.308
94	-31.714	40.07
95	-6.189	20.813
96	-32.379	-7.91
97	-19.482	13.544
98	41.785	-2.728
99	-69.745	-22.491
100	-42.633	-6.836
101	-28.955	15.491
102	-9.161	29.657
103	-33.429	29.492
104	-30.872	20.654
105	-66.943	81.207
106	-14.404	-33.954
107	-70.544	-16.187
108	-31.909	48.224
109	-5.103	69.318
110	17.822	-40.405
111	6.653	28.217
112	7.343	-15.204
113	20.63	-56.732
114	-44.019	-13.092
115	-33.423	65.1
116	15.833	-14.282
117	-5.389	12.592
118	11.322	-13.574
119	-19.501	29.968
120	29.395	25.305
121	14.484	-49.243
122	-58.398	16.467
123	17.218	-12.415
124	-7.611	-15.79
125	3.857	-30.408
126	18.207	-12.823
127	-12.549	41.449
128	7.013	-20.862
129	-87.775	-40.82
130	-47.156	30.554
131	-16.583	-23.328
132	-2.637	0.049
133	-47.882	1.428
134	75.342	-28.101
135	-21.313	-1.727
136	-17.493	18.634
137	3.174	23.828
138	-33.099	55.963
139	-33.899	6.366
140	1.312	50.458
141	-38.715	3.235
142	-72.772	44.043
143	41.248	-4.797
144	-30.988	24.524
145	14.221	35.968
DEMAND_SECTION
1	0
2	6
3	12
4	22
5	4
6	5
7	16
8	9
9	7
10	21
11	18
12	5
13	4
14	13
15	16
16	9
17	15
18	3
19	10
20	25
21	8
22	5
23	14
24	7
25	10
26	22
27	7
28	10
29	2
30	13
31	2
32	12
33	20
34	4
35	15
36	9
37	20
38	2
39	18
40	1
41	2
42	21
43	25
44	4
45	8
46	3
47	23
48	25
49	14
50	15
51	17
52	5
53	9
54	12
55	8
56	9
57	14
58	24
59	7
60	15
61	16
62	19
63	22
64	8
65	14
66	22
67	1
68	13
69	16
70	13
71	20
72	4
73	15
74	24
75	6
76	20
77	3
78	9
79	6
80	21
81	19
82	7
83	23
84	5
85	12
86	1
87	6
88	8
89	20
90	22
91	2
92	22
93	1
94	20
95	10
96	12
97	12
98	10
99	11
100	17
101	2
102	20
103	5
104	14
105	16
106	23
107	17
108	12
109	20
110	12
111	7
112	16
113	18
114	3
115	5
116	2
117	11
118	1
119	11
120	1
121	16
122	19
123	23
124	20
125	15
126	22
127	19
128	21
129	18
130	10
131	6
132	21
133	8
134	22
135	14
136	15
137	12
138	18
139	15
140	18
141	6
142	16
143	23
144	3
145	11
SERVICE_TIME_SECTION
1	0
2	22
3	23
4	14
5	8
6	5
7	3
8	23
9	23
10	6
11	1
12	14
13	8
14	24
15	9
16	19
17	3
18	16
19	18
20	19
21	1
22	17
23	10
24	3
25	3
26	13
27	25
28	7
29	2
30	21
31	4
32	22
33	21
34	16
35	8
36	21
37	10
38	15
39	20
40	10
41	7
42	11
43	4
44	3
45	4
46	24
47	23
48	14
49	24
50	15
51	9
52	8
53	4
54	1
55	8
56	12
57	17
58	17
59	11
60	5
61	6
62	22
63	12
64	21
65	8
66	25
67	4
68	20
69	10
70	11
71	3
72	10
73	16
74	18
75	9
76	17
77	24
78	17
79	1
80	18
81	6
82	9
83	4
84	13
85	17
86	8
87	23
88	11
89	15
90	9
91	15
92	4
93	22
94	8
95	8
96	12
97	7
98	25
99	4
100	10
101	4
102	21
103	9
104	7
105	3
106	2
107	12
108	14
109	23
110	4
111	22
112	4
113	12
114	1
115	2
116	9
117	23
118	11
119	17
120	17
121	3
122	15
123	11
124	15
125	25
126	21
127	22
128	14
129	7
130	23
131	5
132	12
133	21
134	14
135	15
136	9
137	5
138	3
139	1
140	9
141	20
142	21
143	12
144	7
145	9
TIME_WINDOW_SECTION
1	0	1000
2	212	325
3	365	538
4	469	633
5	300	453
6	234	357
7	158	274
8	317	475
9	400	545
10	171	273
11	419	559
12	264	414
13	158	318
14	458	577
15	430	577
16	176	352
17	479	570
18	431	573
19	304	483
20	468	574
21	408	511
22	452	617
23	204	317
24	419	564
25	314	442
26	201	292
27	359	471
28	220	330
29	406	507
30	277	388
31	181	294
32	448	624
33	454	595
34	380	496
35	269	435
36	226	358
37	303	448
38	392	530
39	167	338
40	371	480
41	329	453
42	136	241
43	265	368
44	189	354
45	162	294
46	345	509
47	285	463
48	100	194
49	303	434
50	221	367
51	240	395
52	430	591
53	318	484
54	398	540
55	78	186
56	147	313
57	355	478
58	394	509
59	111	268
60	166	325
61	70	216
62	212	311
63	138	278
64	306	413
65	454	554
66	209	362
67	187	312
68	388	527
69	144	297
70	63	232
71	373	527
72	443	545
73	80	205
74	224	391
75	278	382
76	451	594
77	127	259
78	359	532
79	378	501
80	442	593
81	274	370
82	268	397
83	63	176
84	127	261
85	88	187
86	334	443
87	217	362
88	156	251
89	227	363
90	229	342
91	295	388
92	384	497
93	110	288
94	96	275
95	375	497
96	188	293
97	165	341
98	419	565
99	230	347
100	401	559
101	235	331
102	151	258
103	441	589
104	165	339
105	458	630
106	263	416
107	96	248
108	448	542
109	412	523
110	90	254
111	321	418
112	363	512
113	307	441
114	349	519
115	197	295
116	161	320
117	445	600
118	222	338
119	182	287
120	392	519
121	211	378
122	272	382
123	444	622
124	165	305
125	362	489
126	256	420
127	399	552
128	408	538
129	236	371
130	261	414
131	299	461
132	344	464
133	358	473
134	91	254
135	245	347
136	219	355
137	380	534
138	292	446
139	407	531
140	203	362
141	327	484
142	183	292
143	356	531
144	69	181
145	105	274
CAPACITY_SECTION
1	100
2	100
3	100
4	100
5	150
6	150
7	150
8	150
9	200
10	200
11	200
12	200
13	250
14	250
15	250
16	250
VEHICLES_MAX_DURATION_SECTION
1	500
2	500
3	500
4	500
5	500
6	500
7	500
8	500
9	500
10	500
11	500
12	500
13	500
14	500
15	500
16	500
VEHICLES_ALLOWED_CLIENTS_SECTION
1	2	3	4	5	6	7	8	9	10	11	12	13	14	15	16	17	18	19	20	21	22	23	24	25	26	27	28	29	30	31	32	33	34	35	36	37	41	43	45	46	47	48	50	51	55	57	58	65	66	67	68	70	72	75	77	78	82	83	84	86	88	89	90	92	93	94	96	97	98	102	103	105	108	113	114	122	127	129	132	133	140	143
2	2	3	4	5	6	7	8	9	10	11	12	13	14	15	16	17	18	19	20	21	22	23	24	25	26	27	28	29	30	31	32	33	34	35	36	37	41	43	45	46	47	48	50	51	55	57	58	65	66	67	68	70	72	75	77	78	82	83	84	86	88	89	90	92	93	94	96	97	98	102	103	105	108	113	114	122	127	129	132	133	140	143
3	2	3	4	5	6	7	8	9	10	11	12	13	14	15	16	17	18	19	20	21	22	23	24	25	26	27	28	29	30	31	32	33	34	35	36	37	41	43	45	46	47	48	50	51	55	57	58	65	66	67	68	70	72	75	77	78	82	83	84	86	88	89	90	92	93	94	96	97	98	102	103	105	108	113	114	122	127	129	132	133	140	143
4	2	3	4	5	6	7	8	9	10	11	12	13	14	15	16	17	18	19	20	21	22	23	24	25	26	27	28	29	30	31	32	33	34	35	36	37	41	43	45	46	47	48	50	51	55	57	58	65	66	67	68	70	72	75	77	78	82	83	84	86	88	89	90	92	93	94	96	97	98	102	103	105	108	113	114	122	127	129	132	133	140	143
5	2	3	4	5	6	7	8	9	10	11	12	13	14	15	16	17	18	19	20	21	22	23	24	25	26	27	28	29	30	31	32	33	34	35	36	37	38	39	45	46	47	50	52	53	57	58	61	63	64	65	67	68	69	73	74	75	77	78	82	83	84	85	86	88	89	93	94	95	97	99	100	101	102	103	104	107	109	112	117	124	125	128	131	134	141	142	144
6	2	3	4	5	6	7	8	9	10	11	12	13	14	15	16	17	18	19	20	21	22	23	24	25	26	27	28	29	30	31	32	33	34	35	36	37	38	39	45	46	47	50	52	53	57	58	61	63	64	65	67	68	69	73	74	75	77	78	82	83	84	85	86	88	89	93	94	95	97	99	100	101	102	103	104	107	109	112	117	124	125	128	131	134	141	142	144
7	2	3	4	5	6	7	8	9	10	11	12	13	14	15	16	17	18	19	20	21	22	23	24	25	26	27	28	29	30	31	32	33	34	35	36	37	38	39	45	46	47	50	52	53	57	58	61	63	64	65	67	68	69	73	74	75	77	78	82	83	84	85	86	88	89	93	94	95	97	99	100	101	102	103	104	107	109	112	117	124	125	128	131	134	141	142	144
8	2	3	4	5	6	7	8	9	10	11	12	13	14	15	16	17	18	19	20	21	22	23	24	25	26	27	28	29	30	31	32	33	34	35	36	37	38	39	45	46	47	50	52	53	57	58	61	63	64	65	67	68	69	73	74	75	77	78	82	83	84	85	86	88	89	93	94	95	97	99	100	101	102	103	104	107	109	112	117	124	125	128	131	134	141	142	144
9	2	3	4	5	6	7	8	9	10	11	12	13	14	15	16	17	18	19	20	21	22	23	24	25	26	27	28	29	30	31	32	33	34	35	36	37	38	39	40	42	44	49	52	53	54	56	59	60	61	62	63	64	69	71	73	74	76	79	80	81	85	87	91	95	99	100	101	104	106	107	109	116	118	119	120	121	123	136	137	138	139
10	2	3	4	5	6	7	8	9	10	11	12	13	14	15	16	17	18	19	20	21	22	23	24	25	26	27	28	29	30	31	32	33	34	35	36	37	38	39	40	42	44	49	52	53	54	56	59	60	61	62	63	64	69	71	73	74	76	79	80	81	85	87	91	95	99	100	101	104	106	107	109	116	118	119	120	121	123	136	137	138	139
11	2	3	4	5	6	7	8	9	10	11	12	13	14	15	16	17	18	19	20	21	22	23	24	25	26	27	28	29	30	31	32	33	34	35	36	37	38	39	40	42	44	49	52	53	54	56	59	60	61	62	63	64	69	71	73	74	76	79	80	81	85	87	91	95	99	100	101	104	106	107	109	116	118	119	120	121	123	136	137	138	139
12	2	3	4	5	6	7	8	9	10	11	12	13	14	15	16	17	18	19	20	21	22	23	24	25	26	27	28	29	30	31	32	33	34	35	36	37	38	39	40	42	44	49	52	53	54	56	59	60	61	62	63	64	69	71	73	74	76	79	80	81	85	87	91	95	99	100	101	104	106	107	109	116	118	119	120	121	123	136	137	138	139
13	2	3	4	5	6	7	8	9	10	11	12	13	14	15	16	17	18	19	20	21	22	23	24	25	26	27	28	29	30	31	32	33	34	35	36	37	40	41	42	43	44	48	49	51	54	55	56	59	60	62	66	70	71	72	76	79	80	81	87	90	91	92	96	98	105	106	108	110	111	115	126	130	135	145
14	2	3	4	5	6	7	8	9	10	11	12	13	14	15	16	17	18	19	20	21	22	23	24	25	26	27	28	29	30	31	32	33	34	35	36	37	40	41	42	43	44	48	49	51	54	55	56	59	60	62	66	70	71	72	76	79	80	81	87	90	91	92	96	98	105	106	108	110	111	115	126	130	135	145
15	2	3	4	5	6	7	8	9	10	11	12	13	14	15	16	17	18	19	20	21	22	23	24	25	26	27	28	29	30	31	32	33	34	35	36	37	40	41	42	43	44	48	49	51	54	55	56	59	60	62	66	70	71	72	76	79	80	81	87	90	91	92	96	98	105	106	108	110	111	115	126	130	135	145
16	2	3	4	5	6	7	8	9	10	11	12	13	14	15	16	17	18	19	20	21	22	23	24	25	26	27	28	29	30	31	32	33	34	35	36	37	40	41	42	43	44	48	49	51	54	55	56	59	60	62	66	70	71	72	76	79	80	81	87	90	91	92	96	98	105	106	108	110	111	115	126	130	135	145
EOF
