SDVRPTW/PR03.sol
Route #1: 44 101 139 85 24 45 126 131
Route #2: 54 66 121 50 28 132 16 91 113
Route #3: 65 112 74 142 97 32
Route #4: 83 92 35 95 81 18 128 40 77 3
Route #5: 76 72 67 108 57 37
Route #6: 143 93 82 87 141 103 100 96 63 29 140 56 102
Route #7: 62 60 9 22 133 64 31 23 116
Route #8: 123 49 130 11 88 124 46 127 26 111
Route #9: 68 86 117 115 1 43 119 79 78 17 19
Route #10: 84 41 12 98 106 80 34 38 73 99 138 70 39 51
Route #11: 6 58 55 36 120 105 7 8 20 53 13 122 21
Route #12: 135 118 137 4 90 2 136 94 52
Route #13: 47 109 30 48 42 125 33
Route #14: 25 69 59 144 5 15 27 110
Route #15: 114 14 104 107 10
Route #16: 134 61 89 129 75 71
Cost: 3316659
